param set_len = 28;
param target := 941412544;
set values := 104808177, 115821158, 36412531, 91975296, 50312135, 95627039, 108235512, 127834677, 78795344, 22173359, 47321786, 8702168, 122114402, 65081131, 102190633, 65143726, 69248169, 114362452, 55667447, 12599488, 33981632, 70699446, 36905910, 98900619, 70959490, 52902636, 23778571, 11381586, ;
